<instance format="XCSP3" type="CSP">
  <variables>
    <var id="x0"> 9 12 </var>
    <var id="x1"> 1 9 12 16 </var>
    <var id="x2"> 1 6 9 16 </var>
    <var id="x3"> 6 9 14 </var>
    <var id="x4"> 2 12 14 16 </var>
    <var id="x5"> 2 6 10 12 14 16 </var>
    <var id="x6"> 6 9 12 14 </var>
    <var id="x7"> 6 14 </var>
    <var id="x8"> 0 3 17 </var>
    <var id="x9"> 0 3 16 </var>
    <var id="x10"> 5 8 16 17 </var>
    <var id="x11"> 5 8 14 16 17 </var>
    <var id="x12"> 0 16 </var>
    <var id="x13"> 0 3 5 7 14 17 </var>
    <var id="x14"> 3 14 16 </var>
    <var id="x15"> 3 7 14 17 </var>
    <var id="x16"> 0 6 15 16 </var>
    <var id="x17"> 6 13 15 17 </var>
    <var id="x18"> 0 2 6 13 16 </var>
    <var id="x19"> 2 5 13 15 </var>
    <var id="x20"> 5 6 13 16 </var>
    <var id="x21"> 0 16 </var>
    <var id="x22"> 0 5 6 17 </var>
    <var id="x23"> 5 6 13 15 </var>
    <var id="x24"> 12 13 15..17 </var>
    <var id="x25"> 16 17 </var>
    <var id="x26"> 0 3 6 15 17 </var>
    <var id="x27"> 0 6 12 13 16 </var>
    <var id="x28"> 3 12 13 15 </var>
    <var id="x29"> 6 13 16 </var>
    <var id="x30"> 0 12 16 </var>
    <var id="x31"> 0 3 6 17 </var>
    <var id="x32"> 5 8 </var>
    <var id="x33"> 5 9 11 </var>
    <var id="x34"> 5 8 9 13 15 </var>
    <var id="x35"> 4 5 8 11 </var>
    <var id="x36"> 6 9 15 </var>
    <var id="x37"> 4 5 13 15 </var>
    <var id="x38"> 5 6 8 11 13 </var>
    <var id="x39"> 11 </var>
    <var id="x40"> 3 11 13 </var>
    <var id="x41"> 2 5 </var>
    <var id="x42"> 3 4 6 </var>
    <var id="x43"> 4 6 13 </var>
    <var id="x44"> 2 6 13 </var>
    <var id="x45"> 11 14 </var>
    <var id="x46"> 3 5 6 11 14 </var>
    <var id="x47"> 3 6 11 13 14 </var>
    <var id="x48"> 0 5 12 16 </var>
    <var id="x49"> 0 6 12 16 </var>
    <var id="x50"> 0 3 5..7 14 </var>
    <var id="x51"> 3 12 14 16 </var>
    <var id="x52"> 5 6 14 </var>
    <var id="x53"> 0 6 12 14 16 </var>
    <var id="x54"> 3 5 6 12 14 </var>
    <var id="x55"> 3 6 7 14 </var>
    <var id="x56"> 3 11 12 17 </var>
    <var id="x57"> 11 12 16 17 </var>
    <var id="x58"> 12 16 17 </var>
    <var id="x59"> 3 6 14 17 </var>
    <var id="x60"> 3 4 12 </var>
    <var id="x61"> 3 4 11 12 14 16 </var>
    <var id="x62"> 6 12 14 16 </var>
    <var id="x63"> 3 6 12 14 </var>
    <var id="x64"> 2 7 8 </var>
    <var id="x65"> 0 15 </var>
    <var id="x66"> 8 14 17 </var>
    <var id="x67"> 0 7 14 15 17 </var>
    <var id="x68"> 2 7 13 15 </var>
    <var id="x69"> 8 14 15 17 </var>
    <var id="x70"> 0 2 13 14 </var>
    <var id="x71"> 13..15 </var>
    <var id="x72"> 11 12 15 17 </var>
    <var id="x73"> 7 8 12 </var>
    <var id="x74"> 8 11 16 17 </var>
    <var id="x75"> 7 12 15 </var>
    <var id="x76"> 6 8 11 16 </var>
    <var id="x77"> 7 11 12 16 </var>
    <var id="x78"> 11 12 16 </var>
    <var id="x79"> 6 7 11 15 17 </var>
    <var id="x80"> 0 9 12 13 15 </var>
    <var id="x81"> 5 12 </var>
    <var id="x82"> 5 9 12 13 15 16 </var>
    <var id="x83"> 12 13 16 </var>
    <var id="x84"> 5 15 </var>
    <var id="x85"> 0 12 13 16 </var>
    <var id="x86"> 13 15 </var>
    <var id="x87"> 1 7 8 10 </var>
    <var id="x88"> 1 9 11 </var>
    <var id="x89"> 1 7 10 13 </var>
    <var id="x90"> 8 10 11 14 </var>
    <var id="x91"> 7 9 14 </var>
    <var id="x92"> 7 11 14 </var>
    <var id="x93"> 9 13 14 </var>
    <var id="x94"> 7 11 13 14 </var>
    <var id="x95"> 9 11 12 15 </var>
    <var id="x96"> 7 10 15 </var>
    <var id="x97"> 5 9 12 15 </var>
    <var id="x98"> 7 9 15 </var>
    <var id="x99"> 5 7 12 15 </var>
    <var id="x100"> 5 11 15 </var>
    <var id="x101"> 10 12 </var>
    <var id="x102"> 3 11 13 </var>
    <var id="x103"> 3 4 6 </var>
    <var id="x104"> 4 6 7 10 13 </var>
    <var id="x105"> 6 10 13 </var>
    <var id="x106"> 5 6 10 11 13 </var>
    <var id="x107"> 7 10 11 </var>
    <var id="x108"> 3 4 11 13 </var>
    <var id="x109"> 3 5 6 13 </var>
    <var id="x110"> 1 2 10 12 </var>
    <var id="x111"> 1 4 6 10 </var>
    <var id="x112"> 12 </var>
    <var id="x113"> 4 10 11 </var>
    <var id="x114"> 0 10..12 </var>
    <var id="x115"> 0 6 11 </var>
    <var id="x116"> 0 2 6 10 12 </var>
    <var id="x117"> 6 12 </var>
    <var id="x118"> 0 17 </var>
    <var id="x119"> 10 13 15 17 </var>
    <var id="x120"> 0 3 14 15 17 </var>
    <var id="x121"> 10 13 14 </var>
    <var id="x122"> 3 13 14 </var>
    <var id="x123"> 14 15 17 </var>
    <var id="x124"> 0 10 13 14 </var>
    <var id="x125"> 1 5 12 16 17 </var>
    <var id="x126"> 1 16 </var>
    <var id="x127"> 5 10 14 16 17 </var>
    <var id="x128"> 1 10 12 13 16 </var>
    <var id="x129"> 5 12 13 </var>
    <var id="x130"> 5 10 13 14 16 </var>
    <var id="x131"> 5 14 17 </var>
    <var id="x132"> 13 14 17 </var>
    <var id="x133"> 1 9 11 12 17 </var>
    <var id="x134"> 1 3 9 15 </var>
    <var id="x135"> 1 15 17 </var>
    <var id="x136"> 9 12 15 17 </var>
    <var id="x137"> 1 12 </var>
    <var id="x138"> 11 14 </var>
    <var id="x139"> 3 11 14 17 </var>
    <var id="x140"> 11 14 15 17 </var>
  </variables>
  <constraints>
    <group>
      <allDifferent> %... </allDifferent>
      <args> x0 x1 x2 x3 x4 x5 x6 x7 </args>
      <args> x8 x9 x10 x11 x12 x13 x14 x15 </args>
      <args> x16 x17 x18 x19 x20 x21 x22 x23 </args>
      <args> x24 x25 x26 x27 x28 x29 x30 x31 </args>
      <args> x32 x33 x34 x35 x36 x37 x38 x39 </args>
      <args> x40 x41 x42 x43 x44 x45 x46 x47 </args>
      <args> x48 x49 x50 x51 x52 x53 x54 x55 </args>
      <args> x56 x57 x58 x59 x60 x61 x62 x63 </args>
      <args> x64 x65 x66 x67 x68 x69 x70 x71 </args>
      <args> x72 x73 x74 x75 x76 x77 x78 x79 </args>
      <args> x80 x81 x82 x83 x84 x85 x86 </args>
      <args> x87 x88 x89 x90 x91 x92 x93 x94 </args>
      <args> x95 x96 x97 x98 x99 x100 x101 </args>
      <args> x102 x103 x104 x105 x106 x107 x108 x109 </args>
      <args> x110 x111 x112 x113 x114 x115 x116 x117 </args>
      <args> x118 x119 x120 x121 x122 x123 x124 </args>
      <args> x125 x126 x127 x128 x129 x130 x131 x132 </args>
      <args> x133 x134 x135 x136 x137 x138 x139 x140 </args>
      <args> x0 x8 x40 x56 x72 x80 x95 x102 </args>
      <args> x32 x41 x64 x73 x81 x87 x110 </args>
      <args> x1 x33 x48 x57 x88 x118 x125 x133 </args>
      <args> x2 x9 x16 x42 x65 x103 x126 x134 </args>
      <args> x17 x43 x89 x96 x104 x111 x119 x135 </args>
      <args> x10 x24 x34 x58 x82 x97 x112 x136 </args>
      <args> x11 x25 x35 x66 x74 x90 x113 x127 </args>
      <args> x3 x26 x36 x59 x67 x91 x98 x120 </args>
      <args> x12 x18 x27 x44 x49 x105 x128 x137 </args>
      <args> x19 x28 x37 x60 x68 x75 x99 x129 </args>
      <args> x20 x29 x38 x76 x106 x121 x130 x138 </args>
      <args> x21 x30 x39 x45 x77 x107 x114 </args>
      <args> x13 x22 x31 x46 x50 x92 x115 x139 </args>
      <args> x4 x14 x51 x61 x78 x83 x108 x122 </args>
      <args> x52 x69 x84 x100 x123 x131 x140 </args>
      <args> x5 x53 x62 x70 x85 x101 x116 x124 </args>
      <args> x6 x23 x54 x63 x71 x93 x109 x117 </args>
      <args> x7 x15 x47 x55 x79 x86 x94 x132 </args>
    </group>
  </constraints>
</instance>

